p tw 40 98
0 1
0 6
0 27
0 37
0 24
1 17
1 10
1 25
1 7
1 27
1 2
1 13
2 3
2 6
2 18
2 24
2 20
2 32
3 34
3 35
3 36
3 26
4 5
4 11
4 18
5 9
5 21
5 17
5 35
6 13
6 18
6 28
6 39
6 30
6 19
7 8
7 10
7 19
7 12
7 23
7 14
7 22
8 20
9 12
9 24
10 29
11 12
11 15
11 24
11 13
12 13
12 20
12 27
12 22
12 16
13 21
13 34
13 20
14 15
14 35
14 36
14 33
14 37
14 26
15 22
15 26
15 20
15 27
15 30
16 17
17 27
18 19
18 25
18 22
18 38
19 27
19 35
19 37
20 25
20 26
21 26
21 28
21 23
23 24
23 29
23 30
23 32
24 33
25 34
25 31
29 31
29 32
29 38
30 31
31 32
32 33
32 36
36 38
